\* Source Pyomo model name=unknown *\

max 
x1:
-10.0 x2
-10.0 x3
-10.0 x4
-10.0 x5
-10.0 x6
-10.0 x7
-10.0 x8
-10.0 x9
-10.0 x10
-10.0 x11
-10.0 x12
-10.0 x13
-10.0 x14
-10.0 x15
-10.0 x16
-10.0 x17
-10.0 x18
-10.0 x19
-10.0 x20
-10.0 x21
-10.0 x22
-10.0 x23
-10.0 x24
-10.0 x25
-10.0 x26
-10.0 x27
-10.0 x28
-10.0 x29
-10.0 x30
-10.0 x31
+11.0 x32
+11.0 x33
+11.0 x34
+11.0 x35
+11.0 x36
+11.0 x37
+11.0 x38
+11.0 x39
+11.0 x40
+11.0 x41
+11.0 x42
+11.0 x43
+11.0 x44
+11.0 x45
+11.0 x46
+11.0 x47
+11.0 x48
+11.0 x49
+11.0 x50
+11.0 x51
+11.0 x52
+11.0 x53
+11.0 x54
+11.0 x55
+11.0 x56
+11.0 x57
+11.0 x58
+11.0 x59
+11.0 x60
+11.0 x61
-220.802324411751 x62
-220.802324411751 x63
-220.802324411751 x64
-220.802324411751 x65
-220.802324411751 x66
-220.802324411751 x67
-220.802324411751 x68
-220.802324411751 x69
-220.802324411751 x70
-220.802324411751 x71
-220.802324411751 x72
-220.802324411751 x73
-220.802324411751 x74
-220.802324411751 x75
-220.802324411751 x76
-220.802324411751 x77
-220.802324411751 x78
-220.802324411751 x79
-220.802324411751 x80
-220.802324411751 x81
-220.802324411751 x82
-220.802324411751 x83
-220.802324411751 x84
-220.802324411751 x85
-220.802324411751 x86
-220.802324411751 x87
-220.802324411751 x88
-220.802324411751 x89
-220.802324411751 x90
-220.802324411751 x91
-220.802324411751 x92
-220.802324411751 x93
-220.802324411751 x94
-220.802324411751 x95
-220.802324411751 x96
-220.802324411751 x97
-220.802324411751 x98
-220.802324411751 x99
-220.802324411751 x100
-220.802324411751 x101
-220.802324411751 x102
-220.802324411751 x103
-220.802324411751 x104
-220.802324411751 x105
-220.802324411751 x106
-220.802324411751 x107
-220.802324411751 x108
-220.802324411751 x109
-220.802324411751 x110
-220.802324411751 x111
-220.802324411751 x112

s.t.

c_e_x113_:
+1 x87
+1 x114
+1 x115
-1 x116
= 0

c_e_x117_:
+1 x72
-1 x114
+1 x118
+1 x119
= 0

c_e_x120_:
+1 x66
-1 x118
+1 x121
+1 x122
= 0

c_e_x123_:
+1 x64
-1 x121
+1 x124
+1 x125
= 0

c_e_x126_:
+1 x95
-1 x124
+1 x127
+1 x128
= 0

c_e_x129_:
+1 x111
-1 x127
+1 x130
+1 x131
= 0

c_e_x132_:
+1 x86
-1 x108
-1 x130
+1 x133
+1 x134
= 0

c_e_x135_:
-1 x71
+1 x85
-1 x133
+1 x136
+1 x137
= 0

c_e_x138_:
-1 x83
+1 x89
-1 x136
+1 x139
+1 x140
= 0

c_e_x141_:
+1 x63
-1 x90
-1 x139
+1 x142
+1 x143
= 0

c_e_x144_:
-1 x75
+1 x110
-1 x142
+1 x145
+1 x146
= 0

c_e_x147_:
+1 x91
-1 x105
-1 x145
+1 x148
+1 x149
= 0

c_e_x150_:
-1 x68
+1 x78
-1 x148
+1 x151
+1 x152
= 0

c_e_x153_:
-1 x73
+1 x106
-1 x151
+1 x154
+1 x155
= 0

c_e_x156_:
-1 x92
+1 x98
-1 x154
+1 x157
+1 x158
= 0

c_e_x159_:
-1 x70
+1 x74
-1 x157
+1 x160
+1 x161
= 0

c_e_x162_:
+1 x84
-1 x104
-1 x160
+1 x163
+1 x164
= 0

c_e_x165_:
+1 x77
-1 x107
-1 x163
+1 x166
+1 x167
= 0

c_e_x168_:
-1 x103
+1 x112
-1 x166
+1 x169
+1 x170
= 0

c_e_x171_:
-1 x82
+1 x101
-1 x169
+1 x172
+1 x173
= 0

c_e_x174_:
+1 x62
-1 x67
-1 x172
+1 x175
+1 x176
= 0

c_e_x177_:
-1 x88
+1 x109
-1 x175
+1 x178
+1 x179
= 0

c_e_x180_:
-1 x97
+1 x99
-1 x178
+1 x181
+1 x182
= 0

c_e_x183_:
+1 x65
-1 x102
-1 x181
+1 x184
+1 x185
= 0

c_e_x186_:
+1 x76
-1 x100
-1 x184
+1 x187
+1 x188
= 0

c_e_x189_:
+1 x79
-1 x96
-1 x187
+1 x190
+1 x191
= 0

c_e_x192_:
+1 x69
-1 x80
-1 x190
+1 x193
+1 x194
= 0

c_e_x195_:
-1 x81
-1 x193
+1 x196
+1 x197
= 0

c_e_x198_:
-1 x94
-1 x196
+1 x199
+1 x200
= 0

c_e_x201_:
-1 x93
-1 x199
+1 x202
= 0

c_e_x203_:
-1 x87
+1 x108
+1 x204
+1 x205
= 0

c_e_x206_:
+1 x71
-1 x72
-1 x204
+1 x207
+1 x208
= 0

c_e_x209_:
-1 x66
+1 x83
-1 x207
+1 x210
+1 x211
= 0

c_e_x212_:
-1 x64
+1 x90
-1 x210
+1 x213
+1 x214
= 0

c_e_x215_:
+1 x75
-1 x95
-1 x213
+1 x216
+1 x217
= 0

c_e_x218_:
+1 x105
-1 x111
-1 x216
+1 x219
+1 x220
= 0

c_e_x221_:
+1 x68
-1 x86
-1 x219
+1 x222
+1 x223
= 0

c_e_x224_:
+1 x73
-1 x85
-1 x222
+1 x225
+1 x226
= 0

c_e_x227_:
-1 x89
+1 x92
-1 x225
+1 x228
+1 x229
= 0

c_e_x230_:
-1 x63
+1 x70
-1 x228
+1 x231
+1 x232
= 0

c_e_x233_:
+1 x104
-1 x110
-1 x231
+1 x234
+1 x235
= 0

c_e_x236_:
-1 x91
+1 x107
-1 x234
+1 x237
+1 x238
= 0

c_e_x239_:
-1 x78
+1 x103
-1 x237
+1 x240
+1 x241
= 0

c_e_x242_:
+1 x82
-1 x106
-1 x240
+1 x243
+1 x244
= 0

c_e_x245_:
+1 x67
-1 x98
-1 x243
+1 x246
+1 x247
= 0

c_e_x248_:
-1 x74
+1 x88
-1 x246
+1 x249
+1 x250
= 0

c_e_x251_:
-1 x84
+1 x97
-1 x249
+1 x252
+1 x253
= 0

c_e_x254_:
-1 x77
+1 x102
-1 x252
+1 x255
+1 x256
= 0

c_e_x257_:
+1 x100
-1 x112
-1 x255
+1 x258
+1 x259
= 0

c_e_x260_:
+1 x96
-1 x101
-1 x258
+1 x261
+1 x262
= 0

c_e_x263_:
-1 x62
+1 x80
-1 x261
+1 x264
+1 x265
= 0

c_e_x266_:
+1 x81
-1 x109
-1 x264
+1 x267
+1 x268
= 0

c_e_x269_:
+1 x94
-1 x99
-1 x267
+1 x270
+1 x271
= 0

c_e_x272_:
-1 x65
+1 x93
-1 x270
+1 x273
+1 x274
= 0

c_e_x275_:
-1 x76
-1 x273
+1 x276
+1 x277
= 0

c_e_x278_:
-1 x79
-1 x276
+1 x279
+1 x280
= 0

c_e_x281_:
-1 x69
-1 x279
+1 x282
= 0

c_e_x283_:
+1 x116
+1 x284
= 1

c_e_x285_:
+1 x115
+1 x119
+1 x122
+1 x125
+1 x128
+1 x131
+1 x134
+1 x137
+1 x140
+1 x143
+1 x146
+1 x149
+1 x152
+1 x155
+1 x158
+1 x161
+1 x164
+1 x167
+1 x170
+1 x173
+1 x176
+1 x179
+1 x182
+1 x185
+1 x188
+1 x191
+1 x194
+1 x197
+1 x200
+1 x202
+1 x205
+1 x208
+1 x211
+1 x214
+1 x217
+1 x220
+1 x223
+1 x226
+1 x229
+1 x232
+1 x235
+1 x238
+1 x241
+1 x244
+1 x247
+1 x250
+1 x253
+1 x256
+1 x259
+1 x262
+1 x265
+1 x268
+1 x271
+1 x274
+1 x277
+1 x280
+1 x282
+1 x284
= 1

c_e_x286_:
+1 x2
+1 x287
-1 x288
= 0

c_e_x289_:
+1 x3
-1 x287
+1 x290
-1 x291
= 0

c_e_x292_:
+1 x4
-1 x290
+1 x293
-1 x294
= 0

c_e_x295_:
+1 x5
-1 x293
+1 x296
-1 x297
= 0

c_e_x298_:
+1 x6
-1 x296
+1 x299
-1 x300
= 0

c_e_x301_:
+1 x7
-1 x299
+1 x302
-1 x303
= 0

c_e_x304_:
+1 x8
-1 x302
+1 x305
-1 x306
= 0

c_e_x307_:
+1 x9
-1 x305
+1 x308
-1 x309
= 0

c_e_x310_:
+1 x10
-1 x308
+1 x311
-1 x312
= 0

c_e_x313_:
+1 x11
-1 x311
+1 x314
-1 x315
= 0

c_e_x316_:
+1 x12
-1 x314
+1 x317
-1 x318
= 0

c_e_x319_:
+1 x13
-1 x317
+1 x320
-1 x321
= 0

c_e_x322_:
+1 x14
-1 x320
+1 x323
-1 x324
= 0

c_e_x325_:
+1 x15
-1 x323
+1 x326
-1 x327
= 0

c_e_x328_:
+1 x16
-1 x326
+1 x329
-1 x330
= 0

c_e_x331_:
+1 x17
-1 x329
+1 x332
-1 x333
= 0

c_e_x334_:
+1 x18
-1 x332
+1 x335
-1 x336
= 0

c_e_x337_:
+1 x19
-1 x335
+1 x338
-1 x339
= 0

c_e_x340_:
+1 x20
-1 x338
+1 x341
-1 x342
= 0

c_e_x343_:
+1 x21
-1 x341
+1 x344
-1 x345
= 0

c_e_x346_:
+1 x22
-1 x344
+1 x347
-1 x348
= 0

c_e_x349_:
+1 x23
-1 x347
+1 x350
-1 x351
= 0

c_e_x352_:
+1 x24
-1 x350
+1 x353
-1 x354
= 0

c_e_x355_:
+1 x25
-1 x353
+1 x356
-1 x357
= 0

c_e_x358_:
+1 x26
-1 x356
+1 x359
-1 x360
= 0

c_e_x361_:
+1 x27
-1 x359
+1 x362
-1 x363
= 0

c_e_x364_:
+1 x28
-1 x362
+1 x365
-1 x366
= 0

c_e_x367_:
+1 x29
-1 x365
+1 x368
-1 x369
= 0

c_e_x370_:
+1 x30
-1 x368
+1 x371
-1 x372
= 0

c_e_x373_:
+1 x31
-1 x371
+1 x374
-1 x375
= 0

c_e_x376_:
-1 x32
+1 x377
+1 x378
= 351.0

c_e_x379_:
-1 x33
-1 x377
+1 x380
+1 x381
= 0

c_e_x382_:
-1 x34
-1 x380
+1 x383
+1 x384
= 0

c_e_x385_:
-1 x35
-1 x383
+1 x386
+1 x387
= 0

c_e_x388_:
-1 x36
-1 x386
+1 x389
+1 x390
= 0

c_e_x391_:
-1 x37
-1 x389
+1 x392
+1 x393
= 0

c_e_x394_:
-1 x38
-1 x392
+1 x395
+1 x396
= 0

c_e_x397_:
-1 x39
-1 x395
+1 x398
+1 x399
= 0

c_e_x400_:
-1 x40
-1 x398
+1 x401
+1 x402
= 0

c_e_x403_:
-1 x41
-1 x401
+1 x404
+1 x405
= 0

c_e_x406_:
-1 x42
-1 x404
+1 x407
+1 x408
= 0

c_e_x409_:
-1 x43
-1 x407
+1 x410
+1 x411
= 0

c_e_x412_:
-1 x44
-1 x410
+1 x413
+1 x414
= 0

c_e_x415_:
-1 x45
-1 x413
+1 x416
+1 x417
= 0

c_e_x418_:
-1 x46
-1 x416
+1 x419
+1 x420
= 0

c_e_x421_:
-1 x47
-1 x419
+1 x422
+1 x423
= 0

c_e_x424_:
-1 x48
-1 x422
+1 x425
+1 x426
= 0

c_e_x427_:
-1 x49
-1 x425
+1 x428
+1 x429
= 0

c_e_x430_:
-1 x50
-1 x428
+1 x431
+1 x432
= 0

c_e_x433_:
-1 x51
-1 x431
+1 x434
+1 x435
= 0

c_e_x436_:
-1 x52
-1 x434
+1 x437
+1 x438
= 0

c_e_x439_:
-1 x53
-1 x437
+1 x440
+1 x441
= 0

c_e_x442_:
-1 x54
-1 x440
+1 x443
+1 x444
= 0

c_e_x445_:
-1 x55
-1 x443
+1 x446
+1 x447
= 0

c_e_x448_:
-1 x56
-1 x446
+1 x449
+1 x450
= 0

c_e_x451_:
-1 x57
-1 x449
+1 x452
+1 x453
= 0

c_e_x454_:
-1 x58
-1 x452
+1 x455
+1 x456
= 0

c_e_x457_:
-1 x59
-1 x455
+1 x458
+1 x459
= 0

c_e_x460_:
-1 x60
-1 x458
+1 x461
+1 x462
= 0

c_e_x463_:
-1 x61
-1 x461
+1 x464
+1 x465
= 0

c_e_x466_:
-1 x2
+1 x32
+1 x467
= 0

c_e_x468_:
-1 x3
+1 x33
-1 x467
+1 x469
= 0

c_e_x470_:
-1 x4
+1 x34
-1 x469
+1 x471
= 0

c_e_x472_:
-1 x5
+1 x35
-1 x471
+1 x473
= 0

c_e_x474_:
-1 x6
+1 x36
-1 x473
+1 x475
= 0

c_e_x476_:
-1 x7
+1 x37
-1 x475
+1 x477
= 0

c_e_x478_:
-1 x8
+1 x38
-1 x477
+1 x479
= 0

c_e_x480_:
-1 x9
+1 x39
-1 x479
+1 x481
= 0

c_e_x482_:
-1 x10
+1 x40
-1 x481
+1 x483
= 0

c_e_x484_:
-1 x11
+1 x41
-1 x483
+1 x485
= 0

c_e_x486_:
-1 x12
+1 x42
-1 x485
+1 x487
= 0

c_e_x488_:
-1 x13
+1 x43
-1 x487
+1 x489
= 0

c_e_x490_:
-1 x14
+1 x44
-1 x489
+1 x491
= 0

c_e_x492_:
-1 x15
+1 x45
-1 x491
+1 x493
= 0

c_e_x494_:
-1 x16
+1 x46
-1 x493
+1 x495
= 0

c_e_x496_:
-1 x17
+1 x47
-1 x495
+1 x497
= 0

c_e_x498_:
-1 x18
+1 x48
-1 x497
+1 x499
= 0

c_e_x500_:
-1 x19
+1 x49
-1 x499
+1 x501
= 0

c_e_x502_:
-1 x20
+1 x50
-1 x501
+1 x503
= 0

c_e_x504_:
-1 x21
+1 x51
-1 x503
+1 x505
= 0

c_e_x506_:
-1 x22
+1 x52
-1 x505
+1 x507
= 0

c_e_x508_:
-1 x23
+1 x53
-1 x507
+1 x509
= 0

c_e_x510_:
-1 x24
+1 x54
-1 x509
+1 x511
= 0

c_e_x512_:
-1 x25
+1 x55
-1 x511
+1 x513
= 0

c_e_x514_:
-1 x26
+1 x56
-1 x513
+1 x515
= 0

c_e_x516_:
-1 x27
+1 x57
-1 x515
+1 x517
= 0

c_e_x518_:
-1 x28
+1 x58
-1 x517
+1 x519
= 0

c_e_x520_:
-1 x29
+1 x59
-1 x519
+1 x521
= 0

c_e_x522_:
-1 x30
+1 x60
-1 x521
+1 x523
= 0

c_e_x524_:
-1 x31
+1 x61
-1 x523
+1 x525
= 0

c_u_x526_:
+1 x527
<= 1

c_u_x528_:
+1 x529
<= 1

c_u_x530_:
+1 x531
<= 1

c_u_x532_:
+1 x533
<= 1

c_u_x534_:
+1 x535
<= 1

c_u_x536_:
+1 x537
<= 1

c_u_x538_:
+1 x539
<= 1

c_u_x540_:
+1 x541
<= 1

c_u_x542_:
+1 x543
<= 1

c_u_x544_:
+1 x545
<= 1

c_u_x546_:
+1 x547
<= 1

c_u_x548_:
+1 x549
<= 1

c_u_x550_:
+1 x551
<= 1

c_u_x552_:
+1 x553
<= 1

c_u_x554_:
+1 x555
<= 1

c_u_x556_:
+1 x557
<= 1

c_u_x558_:
+1 x559
<= 1

c_u_x560_:
+1 x561
<= 1

c_u_x562_:
+1 x563
<= 1

c_u_x564_:
+1 x565
<= 1

c_u_x566_:
+1 x567
<= 1

c_u_x568_:
+1 x569
<= 1

c_u_x570_:
+1 x571
<= 1

c_u_x572_:
+1 x573
<= 1

c_u_x574_:
+1 x575
<= 1

c_u_x576_:
+1 x577
<= 1

c_u_x578_:
+1 x579
<= 1

c_u_x580_:
+1 x581
<= 1

c_u_x582_:
+1 x583
<= 1

c_u_x584_:
+1 x585
<= 1

c_u_x586_:
+1 x587
<= 1

c_u_x588_:
+1 x589
<= 1

c_u_x590_:
+1 x591
<= 1

c_u_x592_:
+1 x593
<= 1

c_u_x594_:
+1 x595
<= 1

c_u_x596_:
+1 x597
<= 1

c_u_x598_:
+1 x599
<= 1

c_u_x600_:
+1 x601
<= 1

c_u_x602_:
+1 x603
<= 1

c_u_x604_:
+1 x605
<= 1

c_u_x606_:
+1 x607
<= 1

c_u_x608_:
+1 x609
<= 1

c_u_x610_:
+1 x611
<= 1

c_u_x612_:
+1 x613
<= 1

c_u_x614_:
+1 x615
<= 1

c_u_x616_:
+1 x617
<= 1

c_u_x618_:
+1 x619
<= 1

c_u_x620_:
+1 x621
<= 1

c_u_x622_:
+1 x623
<= 1

c_u_x624_:
+1 x625
<= 1

c_u_x626_:
+1 x627
<= 1

c_u_x628_:
+1 x629
<= 1

c_u_x630_:
+1 x631
<= 1

c_u_x632_:
+1 x633
<= 1

c_u_x634_:
+1 x635
<= 1

c_u_x636_:
+1 x637
<= 1

c_u_x638_:
+1 x639
<= 1

c_u_x640_:
+1 x641
<= 1

c_u_x642_:
+1 x643
<= 1

c_u_x644_:
+1 x645
<= 1

c_u_x646_:
-1 x116
+1 x527
<= 0

c_u_x647_:
-1 x114
+1 x529
<= 0

c_u_x648_:
-1 x118
+1 x531
<= 0

c_u_x649_:
-1 x121
+1 x533
<= 0

c_u_x650_:
-1 x124
+1 x535
<= 0

c_u_x651_:
-1 x127
+1 x537
<= 0

c_u_x652_:
-1 x108
-1 x130
+1 x539
<= 0

c_u_x653_:
-1 x71
-1 x133
+1 x541
<= 0

c_u_x654_:
-1 x83
-1 x136
+1 x543
<= 0

c_u_x655_:
-1 x90
-1 x139
+1 x545
<= 0

c_u_x656_:
-1 x75
-1 x142
+1 x547
<= 0

c_u_x657_:
-1 x105
-1 x145
+1 x549
<= 0

c_u_x658_:
-1 x68
-1 x148
+1 x551
<= 0

c_u_x659_:
-1 x73
-1 x151
+1 x553
<= 0

c_u_x660_:
-1 x92
-1 x154
+1 x555
<= 0

c_u_x661_:
-1 x70
-1 x157
+1 x557
<= 0

c_u_x662_:
-1 x104
-1 x160
+1 x559
<= 0

c_u_x663_:
-1 x107
-1 x163
+1 x561
<= 0

c_u_x664_:
-1 x103
-1 x166
+1 x563
<= 0

c_u_x665_:
-1 x82
-1 x169
+1 x565
<= 0

c_u_x666_:
-1 x67
-1 x172
+1 x567
<= 0

c_u_x667_:
-1 x88
-1 x175
+1 x569
<= 0

c_u_x668_:
-1 x97
-1 x178
+1 x571
<= 0

c_u_x669_:
-1 x102
-1 x181
+1 x573
<= 0

c_u_x670_:
-1 x100
-1 x184
+1 x575
<= 0

c_u_x671_:
-1 x96
-1 x187
+1 x577
<= 0

c_u_x672_:
-1 x80
-1 x190
+1 x579
<= 0

c_u_x673_:
-1 x81
-1 x193
+1 x581
<= 0

c_u_x674_:
-1 x94
-1 x196
+1 x583
<= 0

c_u_x675_:
-1 x93
-1 x199
+1 x585
<= 0

c_u_x676_:
+1 x587
<= 0

c_u_x677_:
+1 x589
<= 0

c_u_x678_:
+1 x591
<= 0

c_u_x679_:
-1 x87
+1 x593
<= 0

c_u_x680_:
-1 x72
-1 x204
+1 x595
<= 0

c_u_x681_:
-1 x66
-1 x207
+1 x597
<= 0

c_u_x682_:
-1 x64
-1 x210
+1 x599
<= 0

c_u_x683_:
-1 x95
-1 x213
+1 x601
<= 0

c_u_x684_:
-1 x111
-1 x216
+1 x603
<= 0

c_u_x685_:
-1 x86
-1 x219
+1 x605
<= 0

c_u_x686_:
-1 x85
-1 x222
+1 x607
<= 0

c_u_x687_:
-1 x89
-1 x225
+1 x609
<= 0

c_u_x688_:
-1 x63
-1 x228
+1 x611
<= 0

c_u_x689_:
-1 x110
-1 x231
+1 x613
<= 0

c_u_x690_:
-1 x91
-1 x234
+1 x615
<= 0

c_u_x691_:
-1 x78
-1 x237
+1 x617
<= 0

c_u_x692_:
-1 x106
-1 x240
+1 x619
<= 0

c_u_x693_:
-1 x98
-1 x243
+1 x621
<= 0

c_u_x694_:
-1 x74
-1 x246
+1 x623
<= 0

c_u_x695_:
-1 x84
-1 x249
+1 x625
<= 0

c_u_x696_:
-1 x77
-1 x252
+1 x627
<= 0

c_u_x697_:
-1 x112
-1 x255
+1 x629
<= 0

c_u_x698_:
-1 x101
-1 x258
+1 x631
<= 0

c_u_x699_:
-1 x62
-1 x261
+1 x633
<= 0

c_u_x700_:
-1 x109
-1 x264
+1 x635
<= 0

c_u_x701_:
-1 x99
-1 x267
+1 x637
<= 0

c_u_x702_:
-1 x65
-1 x270
+1 x639
<= 0

c_u_x703_:
-1 x76
-1 x273
+1 x641
<= 0

c_u_x704_:
-1 x79
-1 x276
+1 x643
<= 0

c_u_x705_:
-1 x69
-1 x279
+1 x645
<= 0

c_u_x706_:
-1 x2
+35.0 x527
<= 0

c_u_x707_:
-1 x3
+35.0 x529
<= 0

c_u_x708_:
-1 x4
+35.0 x531
<= 0

c_u_x709_:
-1 x5
+35.0 x533
<= 0

c_u_x710_:
-1 x6
+35.0 x535
<= 0

c_u_x711_:
-1 x7
+35.0 x537
<= 0

c_u_x712_:
-1 x8
+35.0 x539
<= 0

c_u_x713_:
-1 x9
+35.0 x541
<= 0

c_u_x714_:
-1 x10
+35.0 x543
<= 0

c_u_x715_:
-1 x11
+35.0 x545
<= 0

c_u_x716_:
-1 x12
+35.0 x547
<= 0

c_u_x717_:
-1 x13
+35.0 x549
<= 0

c_u_x718_:
-1 x14
+35.0 x551
<= 0

c_u_x719_:
-1 x15
+35.0 x553
<= 0

c_u_x720_:
-1 x16
+35.0 x555
<= 0

c_u_x721_:
-1 x17
+35.0 x557
<= 0

c_u_x722_:
-1 x18
+35.0 x559
<= 0

c_u_x723_:
-1 x19
+35.0 x561
<= 0

c_u_x724_:
-1 x20
+35.0 x563
<= 0

c_u_x725_:
-1 x21
+35.0 x565
<= 0

c_u_x726_:
-1 x22
+35.0 x567
<= 0

c_u_x727_:
-1 x23
+35.0 x569
<= 0

c_u_x728_:
-1 x24
+35.0 x571
<= 0

c_u_x729_:
-1 x25
+35.0 x573
<= 0

c_u_x730_:
-1 x26
+35.0 x575
<= 0

c_u_x731_:
-1 x27
+35.0 x577
<= 0

c_u_x732_:
-1 x28
+35.0 x579
<= 0

c_u_x733_:
-1 x29
+35.0 x581
<= 0

c_u_x734_:
-1 x30
+35.0 x583
<= 0

c_u_x735_:
-1 x31
+35.0 x585
<= 0

c_u_x736_:
-1 x32
+50.0 x587
<= 0

c_u_x737_:
-1 x33
+50.0 x589
<= 0

c_u_x738_:
-1 x34
+50.0 x591
<= 0

c_u_x739_:
-1 x35
+50.0 x593
<= 0

c_u_x740_:
-1 x36
+50.0 x595
<= 0

c_u_x741_:
-1 x37
+50.0 x597
<= 0

c_u_x742_:
-1 x38
+50.0 x599
<= 0

c_u_x743_:
-1 x39
+50.0 x601
<= 0

c_u_x744_:
-1 x40
+50.0 x603
<= 0

c_u_x745_:
-1 x41
+50.0 x605
<= 0

c_u_x746_:
-1 x42
+50.0 x607
<= 0

c_u_x747_:
-1 x43
+50.0 x609
<= 0

c_u_x748_:
-1 x44
+50.0 x611
<= 0

c_u_x749_:
-1 x45
+50.0 x613
<= 0

c_u_x750_:
-1 x46
+50.0 x615
<= 0

c_u_x751_:
-1 x47
+50.0 x617
<= 0

c_u_x752_:
-1 x48
+50.0 x619
<= 0

c_u_x753_:
-1 x49
+50.0 x621
<= 0

c_u_x754_:
-1 x50
+50.0 x623
<= 0

c_u_x755_:
-1 x51
+50.0 x625
<= 0

c_u_x756_:
-1 x52
+50.0 x627
<= 0

c_u_x757_:
-1 x53
+50.0 x629
<= 0

c_u_x758_:
-1 x54
+50.0 x631
<= 0

c_u_x759_:
-1 x55
+50.0 x633
<= 0

c_u_x760_:
-1 x56
+50.0 x635
<= 0

c_u_x761_:
-1 x57
+50.0 x637
<= 0

c_u_x762_:
-1 x58
+50.0 x639
<= 0

c_u_x763_:
-1 x59
+50.0 x641
<= 0

c_u_x764_:
-1 x60
+50.0 x643
<= 0

c_u_x765_:
-1 x61
+50.0 x645
<= 0

c_u_x766_:
+1 x2
-322.0 x527
<= 0

c_u_x767_:
+1 x3
-322.0 x529
<= 0

c_u_x768_:
+1 x4
-322.0 x531
<= 0

c_u_x769_:
+1 x5
-322.0 x533
<= 0

c_u_x770_:
+1 x6
-322.0 x535
<= 0

c_u_x771_:
+1 x7
-322.0 x537
<= 0

c_u_x772_:
+1 x8
-322.0 x539
<= 0

c_u_x773_:
+1 x9
-322.0 x541
<= 0

c_u_x774_:
+1 x10
-322.0 x543
<= 0

c_u_x775_:
+1 x11
-322.0 x545
<= 0

c_u_x776_:
+1 x12
-322.0 x547
<= 0

c_u_x777_:
+1 x13
-322.0 x549
<= 0

c_u_x778_:
+1 x14
-322.0 x551
<= 0

c_u_x779_:
+1 x15
-322.0 x553
<= 0

c_u_x780_:
+1 x16
-322.0 x555
<= 0

c_u_x781_:
+1 x17
-322.0 x557
<= 0

c_u_x782_:
+1 x18
-322.0 x559
<= 0

c_u_x783_:
+1 x19
-322.0 x561
<= 0

c_u_x784_:
+1 x20
-322.0 x563
<= 0

c_u_x785_:
+1 x21
-322.0 x565
<= 0

c_u_x786_:
+1 x22
-322.0 x567
<= 0

c_u_x787_:
+1 x23
-322.0 x569
<= 0

c_u_x788_:
+1 x24
-322.0 x571
<= 0

c_u_x789_:
+1 x25
-322.0 x573
<= 0

c_u_x790_:
+1 x26
-322.0 x575
<= 0

c_u_x791_:
+1 x27
-322.0 x577
<= 0

c_u_x792_:
+1 x28
-322.0 x579
<= 0

c_u_x793_:
+1 x29
-322.0 x581
<= 0

c_u_x794_:
+1 x30
-322.0 x583
<= 0

c_u_x795_:
+1 x31
-322.0 x585
<= 0

c_u_x796_:
+1 x32
-390.0 x587
<= 0

c_u_x797_:
+1 x33
-390.0 x589
<= 0

c_u_x798_:
+1 x34
-390.0 x591
<= 0

c_u_x799_:
+1 x35
-390.0 x593
<= 0

c_u_x800_:
+1 x36
-390.0 x595
<= 0

c_u_x801_:
+1 x37
-390.0 x597
<= 0

c_u_x802_:
+1 x38
-390.0 x599
<= 0

c_u_x803_:
+1 x39
-390.0 x601
<= 0

c_u_x804_:
+1 x40
-390.0 x603
<= 0

c_u_x805_:
+1 x41
-390.0 x605
<= 0

c_u_x806_:
+1 x42
-390.0 x607
<= 0

c_u_x807_:
+1 x43
-390.0 x609
<= 0

c_u_x808_:
+1 x44
-390.0 x611
<= 0

c_u_x809_:
+1 x45
-390.0 x613
<= 0

c_u_x810_:
+1 x46
-390.0 x615
<= 0

c_u_x811_:
+1 x47
-390.0 x617
<= 0

c_u_x812_:
+1 x48
-390.0 x619
<= 0

c_u_x813_:
+1 x49
-390.0 x621
<= 0

c_u_x814_:
+1 x50
-390.0 x623
<= 0

c_u_x815_:
+1 x51
-390.0 x625
<= 0

c_u_x816_:
+1 x52
-390.0 x627
<= 0

c_u_x817_:
+1 x53
-390.0 x629
<= 0

c_u_x818_:
+1 x54
-390.0 x631
<= 0

c_u_x819_:
+1 x55
-390.0 x633
<= 0

c_u_x820_:
+1 x56
-390.0 x635
<= 0

c_u_x821_:
+1 x57
-390.0 x637
<= 0

c_u_x822_:
+1 x58
-390.0 x639
<= 0

c_u_x823_:
+1 x59
-390.0 x641
<= 0

c_u_x824_:
+1 x60
-390.0 x643
<= 0

c_u_x825_:
+1 x61
-390.0 x645
<= 0

c_l_x826_:
+1 x288
>= 33.0

c_l_x827_:
+1 x291
>= 33.0

c_l_x828_:
+1 x294
>= 33.0

c_l_x829_:
+1 x297
>= 33.0

c_l_x830_:
+1 x300
>= 33.0

c_l_x831_:
+1 x303
>= 33.0

c_l_x832_:
+1 x306
>= 33.0

c_l_x833_:
+1 x309
>= 33.0

c_l_x834_:
+1 x312
>= 33.0

c_l_x835_:
+1 x315
>= 33.0

c_l_x836_:
+1 x318
>= 33.0

c_l_x837_:
+1 x321
>= 33.0

c_l_x838_:
+1 x324
>= 33.0

c_l_x839_:
+1 x327
>= 33.0

c_l_x840_:
+1 x330
>= 33.0

c_l_x841_:
+1 x333
>= 33.0

c_l_x842_:
+1 x336
>= 33.0

c_l_x843_:
+1 x339
>= 33.0

c_l_x844_:
+1 x342
>= 33.0

c_l_x845_:
+1 x345
>= 33.0

c_l_x846_:
+1 x348
>= 33.0

c_l_x847_:
+1 x351
>= 33.0

c_l_x848_:
+1 x354
>= 33.0

c_l_x849_:
+1 x357
>= 33.0

c_l_x850_:
+1 x360
>= 33.0

c_l_x851_:
+1 x363
>= 33.0

c_l_x852_:
+1 x366
>= 33.0

c_l_x853_:
+1 x369
>= 33.0

c_l_x854_:
+1 x372
>= 33.0

c_l_x855_:
+1 x375
>= 33.0

c_l_x856_:
+1 x378
>= 39.0

c_l_x857_:
+1 x381
>= 39.0

c_l_x858_:
+1 x384
>= 39.0

c_l_x859_:
+1 x387
>= 39.0

c_l_x860_:
+1 x390
>= 39.0

c_l_x861_:
+1 x393
>= 39.0

c_l_x862_:
+1 x396
>= 39.0

c_l_x863_:
+1 x399
>= 39.0

c_l_x864_:
+1 x402
>= 39.0

c_l_x865_:
+1 x405
>= 39.0

c_l_x866_:
+1 x408
>= 39.0

c_l_x867_:
+1 x411
>= 39.0

c_l_x868_:
+1 x414
>= 39.0

c_l_x869_:
+1 x417
>= 39.0

c_l_x870_:
+1 x420
>= 39.0

c_l_x871_:
+1 x423
>= 39.0

c_l_x872_:
+1 x426
>= 39.0

c_l_x873_:
+1 x429
>= 39.0

c_l_x874_:
+1 x432
>= 39.0

c_l_x875_:
+1 x435
>= 39.0

c_l_x876_:
+1 x438
>= 39.0

c_l_x877_:
+1 x441
>= 39.0

c_l_x878_:
+1 x444
>= 39.0

c_l_x879_:
+1 x447
>= 39.0

c_l_x880_:
+1 x450
>= 39.0

c_l_x881_:
+1 x453
>= 39.0

c_l_x882_:
+1 x456
>= 39.0

c_l_x883_:
+1 x459
>= 39.0

c_l_x884_:
+1 x462
>= 39.0

c_l_x885_:
+1 x465
>= 39.0

c_u_x886_:
+1 x288
<= 99.0

c_u_x887_:
+1 x291
<= 99.0

c_u_x888_:
+1 x294
<= 99.0

c_u_x889_:
+1 x297
<= 99.0

c_u_x890_:
+1 x300
<= 99.0

c_u_x891_:
+1 x303
<= 99.0

c_u_x892_:
+1 x306
<= 99.0

c_u_x893_:
+1 x309
<= 99.0

c_u_x894_:
+1 x312
<= 99.0

c_u_x895_:
+1 x315
<= 99.0

c_u_x896_:
+1 x318
<= 99.0

c_u_x897_:
+1 x321
<= 99.0

c_u_x898_:
+1 x324
<= 99.0

c_u_x899_:
+1 x327
<= 99.0

c_u_x900_:
+1 x330
<= 99.0

c_u_x901_:
+1 x333
<= 99.0

c_u_x902_:
+1 x336
<= 99.0

c_u_x903_:
+1 x339
<= 99.0

c_u_x904_:
+1 x342
<= 99.0

c_u_x905_:
+1 x345
<= 99.0

c_u_x906_:
+1 x348
<= 99.0

c_u_x907_:
+1 x351
<= 99.0

c_u_x908_:
+1 x354
<= 99.0

c_u_x909_:
+1 x357
<= 99.0

c_u_x910_:
+1 x360
<= 99.0

c_u_x911_:
+1 x363
<= 99.0

c_u_x912_:
+1 x366
<= 99.0

c_u_x913_:
+1 x369
<= 99.0

c_u_x914_:
+1 x372
<= 99.0

c_u_x915_:
+1 x375
<= 99.0

c_u_x916_:
+1 x378
<= 39.0

c_u_x917_:
+1 x381
<= 39.0

c_u_x918_:
+1 x384
<= 39.0

c_u_x919_:
+1 x387
<= 39.0

c_u_x920_:
+1 x390
<= 39.0

c_u_x921_:
+1 x393
<= 39.0

c_u_x922_:
+1 x396
<= 39.0

c_u_x923_:
+1 x399
<= 39.0

c_u_x924_:
+1 x402
<= 39.0

c_u_x925_:
+1 x405
<= 39.0

c_u_x926_:
+1 x408
<= 39.0

c_u_x927_:
+1 x411
<= 39.0

c_u_x928_:
+1 x414
<= 39.0

c_u_x929_:
+1 x417
<= 39.0

c_u_x930_:
+1 x420
<= 39.0

c_u_x931_:
+1 x423
<= 39.0

c_u_x932_:
+1 x426
<= 39.0

c_u_x933_:
+1 x429
<= 39.0

c_u_x934_:
+1 x432
<= 39.0

c_u_x935_:
+1 x435
<= 39.0

c_u_x936_:
+1 x438
<= 39.0

c_u_x937_:
+1 x441
<= 39.0

c_u_x938_:
+1 x444
<= 39.0

c_u_x939_:
+1 x447
<= 39.0

c_u_x940_:
+1 x450
<= 39.0

c_u_x941_:
+1 x453
<= 39.0

c_u_x942_:
+1 x456
<= 39.0

c_u_x943_:
+1 x459
<= 39.0

c_u_x944_:
+1 x462
<= 39.0

c_u_x945_:
+1 x465
<= 39.0

c_l_x946_:
+1 x287
>= 0

c_l_x947_:
+1 x290
>= 0

c_l_x948_:
+1 x293
>= 0

c_l_x949_:
+1 x296
>= 0

c_l_x950_:
+1 x299
>= 0

c_l_x951_:
+1 x302
>= 0

c_l_x952_:
+1 x305
>= 0

c_l_x953_:
+1 x308
>= 0

c_l_x954_:
+1 x311
>= 0

c_l_x955_:
+1 x314
>= 0

c_l_x956_:
+1 x317
>= 0

c_l_x957_:
+1 x320
>= 0

c_l_x958_:
+1 x323
>= 0

c_l_x959_:
+1 x326
>= 0

c_l_x960_:
+1 x329
>= 0

c_l_x961_:
+1 x332
>= 0

c_l_x962_:
+1 x335
>= 0

c_l_x963_:
+1 x338
>= 0

c_l_x964_:
+1 x341
>= 0

c_l_x965_:
+1 x344
>= 0

c_l_x966_:
+1 x347
>= 0

c_l_x967_:
+1 x350
>= 0

c_l_x968_:
+1 x353
>= 0

c_l_x969_:
+1 x356
>= 0

c_l_x970_:
+1 x359
>= 0

c_l_x971_:
+1 x362
>= 0

c_l_x972_:
+1 x365
>= 0

c_l_x973_:
+1 x368
>= 0

c_l_x974_:
+1 x371
>= 0

c_l_x975_:
+1 x374
>= 0

c_l_x976_:
+1 x377
>= 0

c_l_x977_:
+1 x380
>= 0

c_l_x978_:
+1 x383
>= 0

c_l_x979_:
+1 x386
>= 0

c_l_x980_:
+1 x389
>= 0

c_l_x981_:
+1 x392
>= 0

c_l_x982_:
+1 x395
>= 0

c_l_x983_:
+1 x398
>= 0

c_l_x984_:
+1 x401
>= 0

c_l_x985_:
+1 x404
>= 0

c_l_x986_:
+1 x407
>= 0

c_l_x987_:
+1 x410
>= 0

c_l_x988_:
+1 x413
>= 0

c_l_x989_:
+1 x416
>= 0

c_l_x990_:
+1 x419
>= 0

c_l_x991_:
+1 x422
>= 0

c_l_x992_:
+1 x425
>= 0

c_l_x993_:
+1 x428
>= 0

c_l_x994_:
+1 x431
>= 0

c_l_x995_:
+1 x434
>= 0

c_l_x996_:
+1 x437
>= 0

c_l_x997_:
+1 x440
>= 0

c_l_x998_:
+1 x443
>= 0

c_l_x999_:
+1 x446
>= 0

c_l_x1000_:
+1 x449
>= 0

c_l_x1001_:
+1 x452
>= 0

c_l_x1002_:
+1 x455
>= 0

c_l_x1003_:
+1 x458
>= 0

c_l_x1004_:
+1 x461
>= 0

c_l_x1005_:
+1 x464
>= 0

c_u_x1006_:
+1 x287
<= 594.0

c_u_x1007_:
+1 x290
<= 594.0

c_u_x1008_:
+1 x293
<= 594.0

c_u_x1009_:
+1 x296
<= 594.0

c_u_x1010_:
+1 x299
<= 594.0

c_u_x1011_:
+1 x302
<= 594.0

c_u_x1012_:
+1 x305
<= 594.0

c_u_x1013_:
+1 x308
<= 594.0

c_u_x1014_:
+1 x311
<= 594.0

c_u_x1015_:
+1 x314
<= 594.0

c_u_x1016_:
+1 x317
<= 594.0

c_u_x1017_:
+1 x320
<= 594.0

c_u_x1018_:
+1 x323
<= 594.0

c_u_x1019_:
+1 x326
<= 594.0

c_u_x1020_:
+1 x329
<= 594.0

c_u_x1021_:
+1 x332
<= 594.0

c_u_x1022_:
+1 x335
<= 594.0

c_u_x1023_:
+1 x338
<= 594.0

c_u_x1024_:
+1 x341
<= 594.0

c_u_x1025_:
+1 x344
<= 594.0

c_u_x1026_:
+1 x347
<= 594.0

c_u_x1027_:
+1 x350
<= 594.0

c_u_x1028_:
+1 x353
<= 594.0

c_u_x1029_:
+1 x356
<= 594.0

c_u_x1030_:
+1 x359
<= 594.0

c_u_x1031_:
+1 x362
<= 594.0

c_u_x1032_:
+1 x365
<= 594.0

c_u_x1033_:
+1 x368
<= 594.0

c_u_x1034_:
+1 x371
<= 594.0

c_u_x1035_:
+1 x374
<= 594.0

c_u_x1036_:
+1 x377
<= 351.0

c_u_x1037_:
+1 x380
<= 351.0

c_u_x1038_:
+1 x383
<= 351.0

c_u_x1039_:
+1 x386
<= 351.0

c_u_x1040_:
+1 x389
<= 351.0

c_u_x1041_:
+1 x392
<= 351.0

c_u_x1042_:
+1 x395
<= 351.0

c_u_x1043_:
+1 x398
<= 351.0

c_u_x1044_:
+1 x401
<= 351.0

c_u_x1045_:
+1 x404
<= 351.0

c_u_x1046_:
+1 x407
<= 351.0

c_u_x1047_:
+1 x410
<= 351.0

c_u_x1048_:
+1 x413
<= 351.0

c_u_x1049_:
+1 x416
<= 351.0

c_u_x1050_:
+1 x419
<= 351.0

c_u_x1051_:
+1 x422
<= 351.0

c_u_x1052_:
+1 x425
<= 351.0

c_u_x1053_:
+1 x428
<= 351.0

c_u_x1054_:
+1 x431
<= 351.0

c_u_x1055_:
+1 x434
<= 351.0

c_u_x1056_:
+1 x437
<= 351.0

c_u_x1057_:
+1 x440
<= 351.0

c_u_x1058_:
+1 x443
<= 351.0

c_u_x1059_:
+1 x446
<= 351.0

c_u_x1060_:
+1 x449
<= 351.0

c_u_x1061_:
+1 x452
<= 351.0

c_u_x1062_:
+1 x455
<= 351.0

c_u_x1063_:
+1 x458
<= 351.0

c_u_x1064_:
+1 x461
<= 351.0

c_u_x1065_:
+1 x464
<= 351.0

c_u_x1066_:
+1 x467
<= 200.0

c_u_x1067_:
+1 x469
<= 200.0

c_u_x1068_:
+1 x471
<= 200.0

c_u_x1069_:
+1 x473
<= 200.0

c_u_x1070_:
+1 x475
<= 200.0

c_u_x1071_:
+1 x477
<= 200.0

c_u_x1072_:
+1 x479
<= 200.0

c_u_x1073_:
+1 x481
<= 200.0

c_u_x1074_:
+1 x483
<= 200.0

c_u_x1075_:
+1 x485
<= 200.0

c_u_x1076_:
+1 x487
<= 200.0

c_u_x1077_:
+1 x489
<= 200.0

c_u_x1078_:
+1 x491
<= 200.0

c_u_x1079_:
+1 x493
<= 200.0

c_u_x1080_:
+1 x495
<= 200.0

c_u_x1081_:
+1 x497
<= 200.0

c_u_x1082_:
+1 x499
<= 200.0

c_u_x1083_:
+1 x501
<= 200.0

c_u_x1084_:
+1 x503
<= 200.0

c_u_x1085_:
+1 x505
<= 200.0

c_u_x1086_:
+1 x507
<= 200.0

c_u_x1087_:
+1 x509
<= 200.0

c_u_x1088_:
+1 x511
<= 200.0

c_u_x1089_:
+1 x513
<= 200.0

c_u_x1090_:
+1 x515
<= 200.0

c_u_x1091_:
+1 x517
<= 200.0

c_u_x1092_:
+1 x519
<= 200.0

c_u_x1093_:
+1 x521
<= 200.0

c_u_x1094_:
+1 x523
<= 200.0

c_u_x1095_:
+1 x525
<= 200.0

c_l_x1096_:
+1 x467
>= 0

c_l_x1097_:
+1 x469
>= 0

c_l_x1098_:
+1 x471
>= 0

c_l_x1099_:
+1 x473
>= 0

c_l_x1100_:
+1 x475
>= 0

c_l_x1101_:
+1 x477
>= 0

c_l_x1102_:
+1 x479
>= 0

c_l_x1103_:
+1 x481
>= 0

c_l_x1104_:
+1 x483
>= 0

c_l_x1105_:
+1 x485
>= 0

c_l_x1106_:
+1 x487
>= 0

c_l_x1107_:
+1 x489
>= 0

c_l_x1108_:
+1 x491
>= 0

c_l_x1109_:
+1 x493
>= 0

c_l_x1110_:
+1 x495
>= 0

c_l_x1111_:
+1 x497
>= 0

c_l_x1112_:
+1 x499
>= 0

c_l_x1113_:
+1 x501
>= 0

c_l_x1114_:
+1 x503
>= 0

c_l_x1115_:
+1 x505
>= 0

c_l_x1116_:
+1 x507
>= 0

c_l_x1117_:
+1 x509
>= 0

c_l_x1118_:
+1 x511
>= 0

c_l_x1119_:
+1 x513
>= 0

c_l_x1120_:
+1 x515
>= 0

c_l_x1121_:
+1 x517
>= 0

c_l_x1122_:
+1 x519
>= 0

c_l_x1123_:
+1 x521
>= 0

c_l_x1124_:
+1 x523
>= 0

c_l_x1125_:
+1 x525
>= 0

bounds
   0 <= x2 <= +1e30
   0 <= x3 <= +1e30
   0 <= x4 <= +1e30
   0 <= x5 <= +1e30
   0 <= x6 <= +1e30
   0 <= x7 <= +1e30
   0 <= x8 <= +1e30
   0 <= x9 <= +1e30
   0 <= x10 <= +1e30
   0 <= x11 <= +1e30
   0 <= x12 <= +1e30
   0 <= x13 <= +1e30
   0 <= x14 <= +1e30
   0 <= x15 <= +1e30
   0 <= x16 <= +1e30
   0 <= x17 <= +1e30
   0 <= x18 <= +1e30
   0 <= x19 <= +1e30
   0 <= x20 <= +1e30
   0 <= x21 <= +1e30
   0 <= x22 <= +1e30
   0 <= x23 <= +1e30
   0 <= x24 <= +1e30
   0 <= x25 <= +1e30
   0 <= x26 <= +1e30
   0 <= x27 <= +1e30
   0 <= x28 <= +1e30
   0 <= x29 <= +1e30
   0 <= x30 <= +1e30
   0 <= x31 <= +1e30
   0 <= x32 <= +1e30
   0 <= x33 <= +1e30
   0 <= x34 <= +1e30
   0 <= x35 <= +1e30
   0 <= x36 <= +1e30
   0 <= x37 <= +1e30
   0 <= x38 <= +1e30
   0 <= x39 <= +1e30
   0 <= x40 <= +1e30
   0 <= x41 <= +1e30
   0 <= x42 <= +1e30
   0 <= x43 <= +1e30
   0 <= x44 <= +1e30
   0 <= x45 <= +1e30
   0 <= x46 <= +1e30
   0 <= x47 <= +1e30
   0 <= x48 <= +1e30
   0 <= x49 <= +1e30
   0 <= x50 <= +1e30
   0 <= x51 <= +1e30
   0 <= x52 <= +1e30
   0 <= x53 <= +1e30
   0 <= x54 <= +1e30
   0 <= x55 <= +1e30
   0 <= x56 <= +1e30
   0 <= x57 <= +1e30
   0 <= x58 <= +1e30
   0 <= x59 <= +1e30
   0 <= x60 <= +1e30
   0 <= x61 <= +1e30
   0 <= x62 <= 1
   0 <= x63 <= 1
   0 <= x64 <= 1
   0 <= x65 <= 1
   0 <= x66 <= 1
   0 <= x67 <= 1
   0 <= x68 <= 1
   0 <= x69 <= 1
   0 <= x70 <= 1
   0 <= x71 <= 1
   0 <= x72 <= 1
   0 <= x73 <= 1
   0 <= x74 <= 1
   0 <= x75 <= 1
   0 <= x76 <= 1
   0 <= x77 <= 1
   0 <= x78 <= 1
   0 <= x79 <= 1
   0 <= x80 <= 1
   0 <= x81 <= 1
   0 <= x82 <= 1
   0 <= x83 <= 1
   0 <= x84 <= 1
   0 <= x85 <= 1
   0 <= x86 <= 1
   0 <= x87 <= 1
   0 <= x88 <= 1
   0 <= x89 <= 1
   0 <= x90 <= 1
   0 <= x91 <= 1
   0 <= x92 <= 1
   0 <= x93 <= 1
   0 <= x94 <= 1
   0 <= x95 <= 1
   0 <= x96 <= 1
   0 <= x97 <= 1
   0 <= x98 <= 1
   0 <= x99 <= 1
   0 <= x100 <= 1
   0 <= x101 <= 1
   0 <= x102 <= 1
   0 <= x103 <= 1
   0 <= x104 <= 1
   0 <= x105 <= 1
   0 <= x106 <= 1
   0 <= x107 <= 1
   0 <= x108 <= 1
   0 <= x109 <= 1
   0 <= x110 <= 1
   0 <= x111 <= 1
   0 <= x112 <= 1
   0 <= x114 <= 1
   0 <= x115 <= 1
   0 <= x116 <= 1
   0 <= x118 <= 1
   0 <= x119 <= 1
   0 <= x121 <= 1
   0 <= x122 <= 1
   0 <= x124 <= 1
   0 <= x125 <= 1
   0 <= x127 <= 1
   0 <= x128 <= 1
   0 <= x130 <= 1
   0 <= x131 <= 1
   0 <= x133 <= 1
   0 <= x134 <= 1
   0 <= x136 <= 1
   0 <= x137 <= 1
   0 <= x139 <= 1
   0 <= x140 <= 1
   0 <= x142 <= 1
   0 <= x143 <= 1
   0 <= x145 <= 1
   0 <= x146 <= 1
   0 <= x148 <= 1
   0 <= x149 <= 1
   0 <= x151 <= 1
   0 <= x152 <= 1
   0 <= x154 <= 1
   0 <= x155 <= 1
   0 <= x157 <= 1
   0 <= x158 <= 1
   0 <= x160 <= 1
   0 <= x161 <= 1
   0 <= x163 <= 1
   0 <= x164 <= 1
   0 <= x166 <= 1
   0 <= x167 <= 1
   0 <= x169 <= 1
   0 <= x170 <= 1
   0 <= x172 <= 1
   0 <= x173 <= 1
   0 <= x175 <= 1
   0 <= x176 <= 1
   0 <= x178 <= 1
   0 <= x179 <= 1
   0 <= x181 <= 1
   0 <= x182 <= 1
   0 <= x184 <= 1
   0 <= x185 <= 1
   0 <= x187 <= 1
   0 <= x188 <= 1
   0 <= x190 <= 1
   0 <= x191 <= 1
   0 <= x193 <= 1
   0 <= x194 <= 1
   0 <= x196 <= 1
   0 <= x197 <= 1
   0 <= x199 <= 1
   0 <= x200 <= 1
   0 <= x202 <= 1
   0 <= x204 <= 1
   0 <= x205 <= 1
   0 <= x207 <= 1
   0 <= x208 <= 1
   0 <= x210 <= 1
   0 <= x211 <= 1
   0 <= x213 <= 1
   0 <= x214 <= 1
   0 <= x216 <= 1
   0 <= x217 <= 1
   0 <= x219 <= 1
   0 <= x220 <= 1
   0 <= x222 <= 1
   0 <= x223 <= 1
   0 <= x225 <= 1
   0 <= x226 <= 1
   0 <= x228 <= 1
   0 <= x229 <= 1
   0 <= x231 <= 1
   0 <= x232 <= 1
   0 <= x234 <= 1
   0 <= x235 <= 1
   0 <= x237 <= 1
   0 <= x238 <= 1
   0 <= x240 <= 1
   0 <= x241 <= 1
   0 <= x243 <= 1
   0 <= x244 <= 1
   0 <= x246 <= 1
   0 <= x247 <= 1
   0 <= x249 <= 1
   0 <= x250 <= 1
   0 <= x252 <= 1
   0 <= x253 <= 1
   0 <= x255 <= 1
   0 <= x256 <= 1
   0 <= x258 <= 1
   0 <= x259 <= 1
   0 <= x261 <= 1
   0 <= x262 <= 1
   0 <= x264 <= 1
   0 <= x265 <= 1
   0 <= x267 <= 1
   0 <= x268 <= 1
   0 <= x270 <= 1
   0 <= x271 <= 1
   0 <= x273 <= 1
   0 <= x274 <= 1
   0 <= x276 <= 1
   0 <= x277 <= 1
   0 <= x279 <= 1
   0 <= x280 <= 1
   0 <= x282 <= 1
   0 <= x284 <= 1
   0 <= x287 <= +1e30
   0 <= x288 <= +1e30
   0 <= x290 <= +1e30
   0 <= x291 <= +1e30
   0 <= x293 <= +1e30
   0 <= x294 <= +1e30
   0 <= x296 <= +1e30
   0 <= x297 <= +1e30
   0 <= x299 <= +1e30
   0 <= x300 <= +1e30
   0 <= x302 <= +1e30
   0 <= x303 <= +1e30
   0 <= x305 <= +1e30
   0 <= x306 <= +1e30
   0 <= x308 <= +1e30
   0 <= x309 <= +1e30
   0 <= x311 <= +1e30
   0 <= x312 <= +1e30
   0 <= x314 <= +1e30
   0 <= x315 <= +1e30
   0 <= x317 <= +1e30
   0 <= x318 <= +1e30
   0 <= x320 <= +1e30
   0 <= x321 <= +1e30
   0 <= x323 <= +1e30
   0 <= x324 <= +1e30
   0 <= x326 <= +1e30
   0 <= x327 <= +1e30
   0 <= x329 <= +1e30
   0 <= x330 <= +1e30
   0 <= x332 <= +1e30
   0 <= x333 <= +1e30
   0 <= x335 <= +1e30
   0 <= x336 <= +1e30
   0 <= x338 <= +1e30
   0 <= x339 <= +1e30
   0 <= x341 <= +1e30
   0 <= x342 <= +1e30
   0 <= x344 <= +1e30
   0 <= x345 <= +1e30
   0 <= x347 <= +1e30
   0 <= x348 <= +1e30
   0 <= x350 <= +1e30
   0 <= x351 <= +1e30
   0 <= x353 <= +1e30
   0 <= x354 <= +1e30
   0 <= x356 <= +1e30
   0 <= x357 <= +1e30
   0 <= x359 <= +1e30
   0 <= x360 <= +1e30
   0 <= x362 <= +1e30
   0 <= x363 <= +1e30
   0 <= x365 <= +1e30
   0 <= x366 <= +1e30
   0 <= x368 <= +1e30
   0 <= x369 <= +1e30
   0 <= x371 <= +1e30
   0 <= x372 <= +1e30
   0 <= x374 <= +1e30
   0 <= x375 <= +1e30
   0 <= x377 <= +1e30
   0 <= x378 <= +1e30
   0 <= x380 <= +1e30
   0 <= x381 <= +1e30
   0 <= x383 <= +1e30
   0 <= x384 <= +1e30
   0 <= x386 <= +1e30
   0 <= x387 <= +1e30
   0 <= x389 <= +1e30
   0 <= x390 <= +1e30
   0 <= x392 <= +1e30
   0 <= x393 <= +1e30
   0 <= x395 <= +1e30
   0 <= x396 <= +1e30
   0 <= x398 <= +1e30
   0 <= x399 <= +1e30
   0 <= x401 <= +1e30
   0 <= x402 <= +1e30
   0 <= x404 <= +1e30
   0 <= x405 <= +1e30
   0 <= x407 <= +1e30
   0 <= x408 <= +1e30
   0 <= x410 <= +1e30
   0 <= x411 <= +1e30
   0 <= x413 <= +1e30
   0 <= x414 <= +1e30
   0 <= x416 <= +1e30
   0 <= x417 <= +1e30
   0 <= x419 <= +1e30
   0 <= x420 <= +1e30
   0 <= x422 <= +1e30
   0 <= x423 <= +1e30
   0 <= x425 <= +1e30
   0 <= x426 <= +1e30
   0 <= x428 <= +1e30
   0 <= x429 <= +1e30
   0 <= x431 <= +1e30
   0 <= x432 <= +1e30
   0 <= x434 <= +1e30
   0 <= x435 <= +1e30
   0 <= x437 <= +1e30
   0 <= x438 <= +1e30
   0 <= x440 <= +1e30
   0 <= x441 <= +1e30
   0 <= x443 <= +1e30
   0 <= x444 <= +1e30
   0 <= x446 <= +1e30
   0 <= x447 <= +1e30
   0 <= x449 <= +1e30
   0 <= x450 <= +1e30
   0 <= x452 <= +1e30
   0 <= x453 <= +1e30
   0 <= x455 <= +1e30
   0 <= x456 <= +1e30
   0 <= x458 <= +1e30
   0 <= x459 <= +1e30
   0 <= x461 <= +1e30
   0 <= x462 <= +1e30
   0 <= x464 <= +1e30
   0 <= x465 <= +1e30
   0 <= x467 <= +1e30
   0 <= x469 <= +1e30
   0 <= x471 <= +1e30
   0 <= x473 <= +1e30
   0 <= x475 <= +1e30
   0 <= x477 <= +1e30
   0 <= x479 <= +1e30
   0 <= x481 <= +1e30
   0 <= x483 <= +1e30
   0 <= x485 <= +1e30
   0 <= x487 <= +1e30
   0 <= x489 <= +1e30
   0 <= x491 <= +1e30
   0 <= x493 <= +1e30
   0 <= x495 <= +1e30
   0 <= x497 <= +1e30
   0 <= x499 <= +1e30
   0 <= x501 <= +1e30
   0 <= x503 <= +1e30
   0 <= x505 <= +1e30
   0 <= x507 <= +1e30
   0 <= x509 <= +1e30
   0 <= x511 <= +1e30
   0 <= x513 <= +1e30
   0 <= x515 <= +1e30
   0 <= x517 <= +1e30
   0 <= x519 <= +1e30
   0 <= x521 <= +1e30
   0 <= x523 <= +1e30
   0 <= x525 <= +1e30
   0 <= x527 <= 1
   0 <= x529 <= 1
   0 <= x531 <= 1
   0 <= x533 <= 1
   0 <= x535 <= 1
   0 <= x537 <= 1
   0 <= x539 <= 1
   0 <= x541 <= 1
   0 <= x543 <= 1
   0 <= x545 <= 1
   0 <= x547 <= 1
   0 <= x549 <= 1
   0 <= x551 <= 1
   0 <= x553 <= 1
   0 <= x555 <= 1
   0 <= x557 <= 1
   0 <= x559 <= 1
   0 <= x561 <= 1
   0 <= x563 <= 1
   0 <= x565 <= 1
   0 <= x567 <= 1
   0 <= x569 <= 1
   0 <= x571 <= 1
   0 <= x573 <= 1
   0 <= x575 <= 1
   0 <= x577 <= 1
   0 <= x579 <= 1
   0 <= x581 <= 1
   0 <= x583 <= 1
   0 <= x585 <= 1
   0 <= x587 <= 1
   0 <= x589 <= 1
   0 <= x591 <= 1
   0 <= x593 <= 1
   0 <= x595 <= 1
   0 <= x597 <= 1
   0 <= x599 <= 1
   0 <= x601 <= 1
   0 <= x603 <= 1
   0 <= x605 <= 1
   0 <= x607 <= 1
   0 <= x609 <= 1
   0 <= x611 <= 1
   0 <= x613 <= 1
   0 <= x615 <= 1
   0 <= x617 <= 1
   0 <= x619 <= 1
   0 <= x621 <= 1
   0 <= x623 <= 1
   0 <= x625 <= 1
   0 <= x627 <= 1
   0 <= x629 <= 1
   0 <= x631 <= 1
   0 <= x633 <= 1
   0 <= x635 <= 1
   0 <= x637 <= 1
   0 <= x639 <= 1
   0 <= x641 <= 1
   0 <= x643 <= 1
   0 <= x645 <= 1
binary
  x62
  x63
  x64
  x65
  x66
  x67
  x68
  x69
  x70
  x71
  x72
  x73
  x74
  x75
  x76
  x77
  x78
  x79
  x80
  x81
  x82
  x83
  x84
  x85
  x86
  x87
  x88
  x89
  x90
  x91
  x92
  x93
  x94
  x95
  x96
  x97
  x98
  x99
  x100
  x101
  x102
  x103
  x104
  x105
  x106
  x107
  x108
  x109
  x110
  x111
  x112
  x114
  x115
  x116
  x118
  x119
  x121
  x122
  x124
  x125
  x127
  x128
  x130
  x131
  x133
  x134
  x136
  x137
  x139
  x140
  x142
  x143
  x145
  x146
  x148
  x149
  x151
  x152
  x154
  x155
  x157
  x158
  x160
  x161
  x163
  x164
  x166
  x167
  x169
  x170
  x172
  x173
  x175
  x176
  x178
  x179
  x181
  x182
  x184
  x185
  x187
  x188
  x190
  x191
  x193
  x194
  x196
  x197
  x199
  x200
  x202
  x204
  x205
  x207
  x208
  x210
  x211
  x213
  x214
  x216
  x217
  x219
  x220
  x222
  x223
  x225
  x226
  x228
  x229
  x231
  x232
  x234
  x235
  x237
  x238
  x240
  x241
  x243
  x244
  x246
  x247
  x249
  x250
  x252
  x253
  x255
  x256
  x258
  x259
  x261
  x262
  x264
  x265
  x267
  x268
  x270
  x271
  x273
  x274
  x276
  x277
  x279
  x280
  x282
  x284
  x527
  x529
  x531
  x533
  x535
  x537
  x539
  x541
  x543
  x545
  x547
  x549
  x551
  x553
  x555
  x557
  x559
  x561
  x563
  x565
  x567
  x569
  x571
  x573
  x575
  x577
  x579
  x581
  x583
  x585
  x587
  x589
  x591
  x593
  x595
  x597
  x599
  x601
  x603
  x605
  x607
  x609
  x611
  x613
  x615
  x617
  x619
  x621
  x623
  x625
  x627
  x629
  x631
  x633
  x635
  x637
  x639
  x641
  x643
  x645
end
